25 35
1 14 5
1 2 13 5
1 7 20
13 11 6
6 13 9 3
28 1 3
3 4 11 4
5 2 11
3 10
2 3 5
1 8
1 1 7
3 2
5
5
2 6
16
17
1 10
1 4 4
1 2 9
1 3 18
2 3 17
2 3 2
3 4 8
1 3 6 7
1 7 3
1 7 1
6 1
8
1 5
4 2
7
6 2
2 3 5
6 5
6 2
6 1
3 2
6
6
5
6 3
6 6
1 5 9
1 2 2 9
1 6 4 3 1
7 4 3 1
6 3 3 1
7 3 3 1
2 5 3 3 1
9 1 4 2 1
9 4 2
10 2 1 2
3 3 3 3 1 2 
1 1 11 2
2 12 2
8 5 2
14 2
13 2